p td 80 82
0 37
2 3
2 6
2 18
3 16
3 23
3 46
4 28
4 53
4 54
4 64
5 59
6 38
6 75
7 69
8 18
9 10
9 12
9 23
9 41
9 65
10 21
10 62
12 56
13 33
14 27
14 30
14 63
15 46
15 48
15 79
16 25
16 48
17 25
18 27
18 40
18 53
18 72
19 33
19 36
19 38
19 69
20 58
21 48
22 35
22 40
24 33
24 75
25 69
26 61
27 33
28 30
28 43
29 32
29 64
32 48
32 56
32 66
33 35
35 47
37 57
38 49
39 56
39 77
40 66
41 43
41 52
41 57
44 56
48 71
48 74
50 58
50 61
50 75
50 79
51 66
52 53
57 73
60 74
61 70
61 73
68 79
